n_potions = 66;
alchemy = [1, 4, 1, 1, 5, 1, 2, 1, 3, 2, 1, 2, 4, 5, 3, 5, 2, 1, 1, 5, 3, 4, 5, 3, 5, 2, 1, 4, 4, 1, 2, 4, 1, 3, 4, 5, 1, 3, 2, 4, 2, 5, 3, 1, 3, 4, 2, 1, 5, 1, 2, 5, 1, 2, 1, 2, 2, 2, 2, 4, 5, 5, 3, 2, 2, 3];
n_days = 12;
min_potions = 5;
max_potions = 7;
min_alchemists = 5;
max_alchemists = 35;
prereqs = [|7,1
|8,2
|8,6
|10,5
|11,5
|13,8
|13,11
|14,3
|16,9
|17,10
|18,11
|19,8
|19,11
|21,10
|23,18
|24,13
|24,19
|26,13
|32,9
|33,27
|34,17
|35,9
|35,17
|35,18
|37,20
|37,30
|37,35
|38,33
|39,35
|41,17
|43,20
|45,38
|46,37
|48,34
|48,35
|49,30
|49,32
|50,43
|51,33
|54,50
|55,43
|55,38
|56,51
|57,34
|58,28
|59,55
|61,48
|61,55
|62,31
|65,59
|];
